93
87
95
104
104
105
106
106
116
128
120
130
121
123
133
139
135
143
145
149
142
150
157
148
141
154
159
161
165
158
160
164
162
169
177
178
175
176
176
181
184
184
176
169
179
187
169
187
181
190
188
185
185
181
176
182
195
184
187
189
185
187
191
200
194
203
204
199
196
215
211
220
214
227
253
266
259
280
284
266
287
277
277
289
290
293
292
296
301
283
297
300
302
303
303
308
313
305
319
310
322
317
303
326
302
328
332
316
335
314
339
336
335
320
339
340
341
345
346
346
332
326
332
345
328
352
348
353
350
321
350
332
351
363
325
359
327
344
367
359
321
370
361
362
355
345
341
369
371
375
356
367
363
370
335
374
369
350
377
379
379
380
385
367
328
384
388
382
349
389
375
393
394
396
391
391
355
403
353
406
406
389
404
411
42
41
46
547
749
71
8
8
88
